benchmarks/crosswords/mzn/crossword3_12.ozn
output ([(((("\n"++problem_name)++"\n")++"L:")++show(L))++"\n"]++[if problem[i,j]==0 then "*" else show(letters[fix(L[problem[i,j]])]) endif++if j==cols then "\n" else "" endif | i in 1..rows, j in 1..cols, ])++["\n"];
int: rows = 15;
int: cols = 15;
array [1..rows,1..cols] of int: problem = [|1,2,3,4,0,5,6,7,8,9,0,10,11,12,13|14,15,16,17,0,18,19,20,21,22,0,23,24,25,26|27,28,29,30,0,31,32,33,34,35,0,36,37,38,39|40,41,42,43,44,45,46,47,0,48,49,50,51,52,53|0,0,0,54,55,56,57,0,58,59,60,61,0,0,0|62,63,64,65,66,67,0,68,69,70,71,72,73,74,75|76,77,78,79,80,0,81,82,83,84,85,0,86,87,88|89,90,91,92,0,93,94,95,96,97,0,98,99,100,101|102,103,104,0,105,106,107,108,109,0,110,111,112,113,114|115,116,117,118,119,120,121,122,0,123,124,125,126,127,128|0,0,0,129,130,131,132,0,133,134,135,136,0,0,0|137,138,139,140,141,142,0,143,144,145,146,147,148,149,150|151,152,153,154,0,155,156,157,158,159,0,160,161,162,163|164,165,166,167,0,168,169,170,171,172,0,173,174,175,176|177,178,179,180,0,181,182,183,184,185,0,186,187,188,189|];
int: num_letters = 26;
array [1..num_letters] of string: letters = ["a","b","c","d","e","f","g","h","i","j","k","l","m","n","o","p","q","r","s","t","u","v","w","x","y","z"];
int: N = 189;
array [0..N] of int: L;
string: problem_name = "15.03, 15 x 15";
