benchmarks/crosswords/mzn/crossword3_12.res
REGULAR
REGULAR
REGULAR
REGULAR
REGULAR
REGULAR
REGULAR
REGULAR
REGULAR
REGULAR
REGULAR
REGULAR
REGULAR
REGULAR
REGULAR
REGULAR
REGULAR
REGULAR
REGULAR
REGULAR
REGULAR
REGULAR
REGULAR
REGULAR
REGULAR
REGULAR
REGULAR
REGULAR
REGULAR
REGULAR
REGULAR
REGULAR
REGULAR
REGULAR
REGULAR
REGULAR
REGULAR
REGULAR
REGULAR
REGULAR
REGULAR
REGULAR
REGULAR
REGULAR
REGULAR
REGULAR
REGULAR
REGULAR
REGULAR
REGULAR
REGULAR
REGULAR
REGULAR
REGULAR
REGULAR
REGULAR
REGULAR
REGULAR
REGULAR
REGULAR
REGULAR
REGULAR
REGULAR
REGULAR
REGULAR
REGULAR
REGULAR
REGULAR
REGULAR
REGULAR
REGULAR
REGULAR
REGULAR
REGULAR
REGULAR
REGULAR
REGULAR
REGULAR
L = array1d(0..189, [1, 14, 1, 5, 19, 9, 1, 14, 1, 12, 1, 22, 1, 12, 5, 18, 9, 5, 1, 14, 18, 15, 12, 18, 1, 9, 12, 13, 1, 13, 9, 13, 1, 5, 2, 1, 15, 12, 19, 15, 1, 3, 1, 3, 9, 20, 9, 20, 2, 1, 2, 15, 1, 2, 1, 4, 1, 4, 1, 4, 4, 5, 9, 19, 15, 16, 1, 11, 1, 9, 14, 5, 4, 18, 1, 7, 18, 5, 20, 1, 23, 12, 5, 2, 1, 12, 1, 8, 1, 18, 9, 1, 16, 18, 1, 4, 1, 8, 5, 3, 1, 12, 5, 20, 18, 5, 5, 22, 5, 12, 11, 1, 9, 13, 21, 20, 19, 5, 6, 9, 14, 1, 13, 14, 18, 5, 22, 15, 7, 5, 18, 9, 12, 5, 18, 1, 8, 4, 5, 4, 9, 2, 1, 1, 20, 15, 4, 3, 5, 14, 1, 1, 12, 5, 12, 18, 1, 2, 1, 2, 1, 12, 1, 7, 3, 9, 16, 5, 20, 18, 5, 2, 5, 18, 1, 4, 1, 19, 14, 1, 2, 19, 5, 18, 1, 18, 20, 16, 1, 18]);
----------

%%  runtime:       8.187 (8187.341 ms)
%%  solvetime:     0.084 (84.847 ms)
%%  solutions:     1
%%  variables:     10550
%%  propagators:   13441
%%  propagations:  149278
%%  nodes:         106
%%  failures:      13
%%  restarts:      0
%%  peak depth:    87

GECODE_TUPLESET_MEM
GECODE_TUPLESET_MEM
GECODE_TUPLESET_MEM
GECODE_TUPLESET_MEM
GECODE_TUPLESET_MEM
GECODE_TUPLESET_MEM
GECODE_TUPLESET_MEM
GECODE_TUPLESET_MEM
GECODE_TUPLESET_MEM
GECODE_TUPLESET_MEM
GECODE_TUPLESET_MEM
GECODE_TUPLESET_MEM
GECODE_TUPLESET_MEM
GECODE_TUPLESET_MEM
GECODE_TUPLESET_MEM
GECODE_TUPLESET_MEM
GECODE_TUPLESET_MEM
GECODE_TUPLESET_MEM
GECODE_TUPLESET_MEM
GECODE_TUPLESET_MEM
GECODE_TUPLESET_MEM
GECODE_TUPLESET_MEM
GECODE_TUPLESET_MEM
GECODE_TUPLESET_MEM
GECODE_TUPLESET_MEM
GECODE_TUPLESET_MEM
GECODE_TUPLESET_MEM
GECODE_TUPLESET_MEM
GECODE_TUPLESET_MEM
GECODE_TUPLESET_MEM
GECODE_TUPLESET_MEM
GECODE_TUPLESET_MEM
GECODE_TUPLESET_MEM
GECODE_TUPLESET_MEM
GECODE_TUPLESET_MEM
GECODE_TUPLESET_MEM
GECODE_TUPLESET_MEM
GECODE_TUPLESET_MEM
GECODE_TUPLESET_MEM
GECODE_TUPLESET_MEM
GECODE_TUPLESET_MEM
GECODE_TUPLESET_MEM
GECODE_TUPLESET_MEM
GECODE_TUPLESET_MEM
GECODE_TUPLESET_MEM
GECODE_TUPLESET_MEM
GECODE_TUPLESET_MEM
GECODE_TUPLESET_MEM
GECODE_TUPLESET_MEM
GECODE_TUPLESET_MEM
GECODE_TUPLESET_MEM
GECODE_TUPLESET_MEM
GECODE_TUPLESET_MEM
GECODE_TUPLESET_MEM
GECODE_TUPLESET_MEM
GECODE_TUPLESET_MEM
GECODE_TUPLESET_MEM
GECODE_TUPLESET_MEM
GECODE_TUPLESET_MEM
GECODE_TUPLESET_MEM
GECODE_TUPLESET_MEM
GECODE_TUPLESET_MEM
GECODE_TUPLESET_MEM
GECODE_TUPLESET_MEM
GECODE_TUPLESET_MEM
GECODE_TUPLESET_MEM
GECODE_TUPLESET_MEM
GECODE_TUPLESET_MEM
GECODE_TUPLESET_MEM
GECODE_TUPLESET_MEM
GECODE_TUPLESET_MEM
GECODE_TUPLESET_MEM
GECODE_TUPLESET_MEM
GECODE_TUPLESET_MEM
GECODE_TUPLESET_MEM
GECODE_TUPLESET_MEM
GECODE_TUPLESET_MEM
GECODE_TUPLESET_MEM
L = array1d(0..189, [1, 19, 20, 5, 13, 2, 1, 8, 9, 1, 6, 1, 9, 12, 12, 5, 22, 9, 1, 12, 1, 14, 1, 5, 4, 4, 1, 1, 18, 5, 19, 3, 9, 7, 1, 18, 13, 1, 12, 9, 23, 9, 14, 4, 12, 1, 19, 19, 4, 5, 1, 14, 5, 4, 5, 21, 12, 1, 15, 22, 1, 12, 1, 16, 16, 1, 12, 12, 19, 16, 1, 3, 5, 13, 1, 14, 16, 1, 21, 12, 1, 13, 25, 18, 18, 8, 1, 4, 1, 16, 19, 19, 20, 14, 1, 14, 1, 11, 3, 12, 15, 16, 1, 8, 1, 18, 1, 14, 3, 8, 20, 8, 5, 18, 5, 12, 1, 14, 7, 21, 9, 19, 8, 14, 15, 9, 19, 5, 19, 5, 12, 19, 5, 7, 1, 4, 19, 5, 19, 20, 5, 5, 13, 13, 1, 9, 4, 5, 14, 12, 25, 11, 1, 18, 9, 9, 2, 9, 26, 1, 12, 1, 21, 5, 5, 22, 1, 14, 20, 1, 13, 5, 4, 5, 20, 14, 1, 4, 5, 14, 7, 8, 1, 9, 18, 19, 4, 5, 1, 18]);
----------

%%  runtime:       0.874 (874.316 ms)
%%  solvetime:     0.195 (195.602 ms)
%%  solutions:     1
%%  variables:     10550
%%  propagators:   13441
%%  propagations:  401429
%%  nodes:         219
%%  failures:      71
%%  restarts:      0
%%  peak depth:    89

GECODE_TUPLESET_SPEED
GECODE_TUPLESET_SPEED
GECODE_TUPLESET_SPEED
GECODE_TUPLESET_SPEED
GECODE_TUPLESET_SPEED
GECODE_TUPLESET_SPEED
GECODE_TUPLESET_SPEED
GECODE_TUPLESET_SPEED
GECODE_TUPLESET_SPEED
GECODE_TUPLESET_SPEED
GECODE_TUPLESET_SPEED
GECODE_TUPLESET_SPEED
GECODE_TUPLESET_SPEED
GECODE_TUPLESET_SPEED
GECODE_TUPLESET_SPEED
GECODE_TUPLESET_SPEED
GECODE_TUPLESET_SPEED
GECODE_TUPLESET_SPEED
GECODE_TUPLESET_SPEED
GECODE_TUPLESET_SPEED
GECODE_TUPLESET_SPEED
GECODE_TUPLESET_SPEED
GECODE_TUPLESET_SPEED
GECODE_TUPLESET_SPEED
GECODE_TUPLESET_SPEED
GECODE_TUPLESET_SPEED
GECODE_TUPLESET_SPEED
GECODE_TUPLESET_SPEED
GECODE_TUPLESET_SPEED
GECODE_TUPLESET_SPEED
GECODE_TUPLESET_SPEED
GECODE_TUPLESET_SPEED
GECODE_TUPLESET_SPEED
GECODE_TUPLESET_SPEED
GECODE_TUPLESET_SPEED
GECODE_TUPLESET_SPEED
GECODE_TUPLESET_SPEED
GECODE_TUPLESET_SPEED
GECODE_TUPLESET_SPEED
GECODE_TUPLESET_SPEED
GECODE_TUPLESET_SPEED
GECODE_TUPLESET_SPEED
GECODE_TUPLESET_SPEED
GECODE_TUPLESET_SPEED
GECODE_TUPLESET_SPEED
GECODE_TUPLESET_SPEED
GECODE_TUPLESET_SPEED
GECODE_TUPLESET_SPEED
GECODE_TUPLESET_SPEED
GECODE_TUPLESET_SPEED
GECODE_TUPLESET_SPEED
GECODE_TUPLESET_SPEED
GECODE_TUPLESET_SPEED
GECODE_TUPLESET_SPEED
GECODE_TUPLESET_SPEED
GECODE_TUPLESET_SPEED
GECODE_TUPLESET_SPEED
GECODE_TUPLESET_SPEED
GECODE_TUPLESET_SPEED
GECODE_TUPLESET_SPEED
GECODE_TUPLESET_SPEED
GECODE_TUPLESET_SPEED
GECODE_TUPLESET_SPEED
GECODE_TUPLESET_SPEED
GECODE_TUPLESET_SPEED
GECODE_TUPLESET_SPEED
GECODE_TUPLESET_SPEED
GECODE_TUPLESET_SPEED
GECODE_TUPLESET_SPEED
GECODE_TUPLESET_SPEED
GECODE_TUPLESET_SPEED
GECODE_TUPLESET_SPEED
GECODE_TUPLESET_SPEED
GECODE_TUPLESET_SPEED
GECODE_TUPLESET_SPEED
GECODE_TUPLESET_SPEED
GECODE_TUPLESET_SPEED
GECODE_TUPLESET_SPEED
L = array1d(0..189, [1, 19, 20, 5, 13, 2, 1, 8, 9, 1, 6, 1, 9, 12, 12, 5, 22, 9, 1, 12, 1, 14, 1, 5, 4, 4, 1, 1, 18, 5, 19, 3, 9, 7, 1, 18, 13, 1, 12, 9, 23, 9, 14, 4, 12, 1, 19, 19, 4, 5, 1, 14, 5, 4, 5, 21, 12, 1, 15, 22, 1, 12, 1, 16, 16, 1, 12, 12, 19, 16, 1, 3, 5, 13, 1, 14, 16, 1, 21, 12, 1, 13, 25, 18, 18, 8, 1, 4, 1, 16, 19, 19, 20, 14, 1, 14, 1, 11, 3, 12, 15, 16, 1, 8, 1, 18, 1, 14, 3, 8, 20, 8, 5, 18, 5, 12, 1, 14, 7, 21, 9, 19, 8, 14, 15, 9, 19, 5, 19, 5, 12, 19, 5, 7, 1, 4, 19, 5, 19, 20, 5, 5, 13, 13, 1, 9, 4, 5, 14, 12, 25, 11, 1, 18, 9, 9, 2, 9, 26, 1, 12, 1, 21, 5, 5, 22, 1, 14, 20, 1, 13, 5, 4, 5, 20, 14, 1, 4, 5, 14, 7, 8, 1, 9, 18, 19, 4, 5, 1, 18]);
----------

%%  runtime:       0.897 (897.006 ms)
%%  solvetime:     0.217 (217.418 ms)
%%  solutions:     1
%%  variables:     10550
%%  propagators:   13441
%%  propagations:  405968
%%  nodes:         219
%%  failures:      71
%%  restarts:      0
%%  peak depth:    89

COMPACT_TABLE
COMPACT_TABLE
COMPACT_TABLE
COMPACT_TABLE
COMPACT_TABLE
COMPACT_TABLE
COMPACT_TABLE
COMPACT_TABLE
COMPACT_TABLE
COMPACT_TABLE
COMPACT_TABLE
COMPACT_TABLE
COMPACT_TABLE
COMPACT_TABLE
COMPACT_TABLE
COMPACT_TABLE
COMPACT_TABLE
COMPACT_TABLE
COMPACT_TABLE
COMPACT_TABLE
COMPACT_TABLE
COMPACT_TABLE
COMPACT_TABLE
COMPACT_TABLE
COMPACT_TABLE
COMPACT_TABLE
COMPACT_TABLE
COMPACT_TABLE
COMPACT_TABLE
COMPACT_TABLE
COMPACT_TABLE
COMPACT_TABLE
COMPACT_TABLE
COMPACT_TABLE
COMPACT_TABLE
COMPACT_TABLE
COMPACT_TABLE
COMPACT_TABLE
COMPACT_TABLE
COMPACT_TABLE
COMPACT_TABLE
COMPACT_TABLE
COMPACT_TABLE
COMPACT_TABLE
COMPACT_TABLE
COMPACT_TABLE
COMPACT_TABLE
COMPACT_TABLE
COMPACT_TABLE
COMPACT_TABLE
COMPACT_TABLE
COMPACT_TABLE
COMPACT_TABLE
COMPACT_TABLE
COMPACT_TABLE
COMPACT_TABLE
COMPACT_TABLE
COMPACT_TABLE
COMPACT_TABLE
COMPACT_TABLE
COMPACT_TABLE
COMPACT_TABLE
COMPACT_TABLE
COMPACT_TABLE
COMPACT_TABLE
COMPACT_TABLE
COMPACT_TABLE
COMPACT_TABLE
COMPACT_TABLE
COMPACT_TABLE
COMPACT_TABLE
COMPACT_TABLE
COMPACT_TABLE
COMPACT_TABLE
COMPACT_TABLE
COMPACT_TABLE
COMPACT_TABLE
COMPACT_TABLE
L = array1d(0..189, [1, 19, 20, 5, 13, 2, 1, 8, 9, 1, 6, 1, 9, 12, 12, 5, 22, 9, 1, 12, 1, 14, 1, 5, 4, 4, 1, 1, 18, 5, 19, 3, 9, 7, 1, 18, 13, 1, 12, 9, 23, 9, 14, 4, 12, 1, 19, 19, 4, 5, 1, 14, 5, 4, 5, 21, 12, 1, 15, 22, 1, 12, 1, 16, 16, 1, 12, 12, 19, 16, 1, 3, 5, 13, 1, 14, 16, 1, 21, 12, 1, 13, 25, 18, 18, 8, 1, 4, 1, 16, 19, 19, 20, 14, 1, 14, 1, 11, 3, 12, 15, 16, 1, 8, 1, 18, 1, 14, 3, 8, 20, 8, 5, 18, 5, 12, 1, 14, 7, 21, 9, 19, 8, 14, 15, 9, 19, 5, 19, 5, 12, 19, 5, 7, 1, 4, 19, 5, 19, 20, 5, 5, 13, 13, 1, 9, 4, 5, 14, 12, 25, 11, 1, 18, 9, 9, 2, 9, 26, 1, 12, 1, 21, 5, 5, 22, 1, 14, 20, 1, 13, 5, 4, 5, 20, 14, 1, 4, 5, 14, 7, 8, 1, 9, 18, 19, 4, 5, 1, 18]);
----------

%%  runtime:       1.038 (1038.313 ms)
%%  solvetime:     0.086 (86.945 ms)
%%  solutions:     1
%%  variables:     10550
%%  propagators:   13441
%%  propagations:  402027
%%  nodes:         219
%%  failures:      71
%%  restarts:      0
%%  peak depth:    89

